
<<< setup


<<< generate

Version identifier: 12.10.0.0 | 2019-11-26 | 843d4de2ae
CPXPARAM_TimeLimit                               1200
Tried aggregator 2 times.
MIP Presolve eliminated 5177752 rows and 2943407 columns.
MIP Presolve modified 421032 coefficients.
Aggregator did 1646 substitutions.
Reduced MIP has 71252 rows, 73997 columns, and 443365 nonzeros.
Reduced MIP has 73947 binaries, 0 generals, 0 SOSs, and 0 indicators.
Presolve time = 6.41 sec. (3794.23 ticks)
Found incumbent of value 0.000000 after 10.34 sec. (4943.75 ticks)
Probing fixed 8553 vars, tightened 0 bounds.
Probing time = 14.69 sec. (3244.01 ticks)
Cover probing fixed 11 vars, tightened 12 bounds.
Tried aggregator 2 times.
MIP Presolve eliminated 6700 rows and 8576 columns.
Aggregator did 1 substitutions.
Reduced MIP has 64551 rows, 65420 columns, and 395980 nonzeros.
Reduced MIP has 65370 binaries, 0 generals, 0 SOSs, and 0 indicators.
Presolve time = 0.27 sec. (204.01 ticks)
Probing fixed 48 vars, tightened 0 bounds.
Probing time = 2.09 sec. (346.66 ticks)
Tried aggregator 1 time.
Detecting symmetries...
MIP Presolve eliminated 38 rows and 50 columns.
MIP Presolve modified 1020 coefficients.
Reduced MIP has 64513 rows, 65370 columns, and 395689 nonzeros.
Reduced MIP has 65320 binaries, 0 generals, 0 SOSs, and 0 indicators.
Presolve time = 0.53 sec. (322.61 ticks)
Probing time = 0.19 sec. (28.74 ticks)
Clique table members: 241931.
MIP emphasis: balance optimality and feasibility.
MIP search method: dynamic search.
Parallel mode: deterministic, using up to 4 threads.
Root relaxation solution time = 3.39 sec. (1978.91 ticks)

        Nodes                                         Cuts/
   Node  Left     Objective  IInf  Best Integer    Best Bound    ItCnt     Gap

*     0+    0                            0.0000   137634.0000              --- 
      0     0   137634.0000   937        0.0000   137634.0000    10782     --- 
      0     0   137634.0000   937        0.0000      Cuts: 43    25643     --- 
      0     0   137634.0000   937        0.0000     Cuts: 596    41705     --- 
Heuristic still looking.
Heuristic still looking.
*     0+    0                         2594.0000   137634.0000              --- 
      0     0        cutoff           2594.0000   137634.0000    41705     --- 
Detecting symmetries...
      0     2   137634.0000   474     2594.0000   137634.0000    41705     --- 
Elapsed time = 348.86 sec. (228455.36 ticks, tree = 0.02 MB, solutions = 2)
      1     3   137634.0000   741     2594.0000   137634.0000    64759     --- 
      2     4   137634.0000   823     2594.0000   137634.0000    76294     --- 
*     4+    2                         7079.0000   137634.0000              --- 
      4     3   137634.0000   739     7079.0000   137634.0000    61525     --- 
      5     5   137634.0000   851     7079.0000   137634.0000   123193     --- 
      6     6   137634.0000   929     7079.0000   137634.0000   128395     --- 
      7     5   137634.0000   790     7079.0000   137634.0000   108455     --- 
      8     7   137634.0000  1004     7079.0000   137634.0000   136791     --- 
      9     8   137634.0000  1160     7079.0000   137634.0000   159177     --- 
     10     8   137634.0000  1037     7079.0000   137634.0000   141027     --- 
     12     9   137634.0000  1222     7079.0000   137634.0000   164800     --- 
Elapsed time = 494.01 sec. (308435.91 ticks, tree = 0.07 MB, solutions = 2)
     14    10   137634.0000   973     7079.0000   137634.0000   142850     --- 
     16    11   137634.0000  1032     7079.0000   137634.0000   155551     --- 
     19     9   137634.0000  1195     7079.0000   137634.0000   175232     --- 
     22    12   137634.0000  1156     7079.0000   137634.0000   166809     --- 
     23    13   137634.0000  1068     7079.0000   137634.0000   174712     --- 
     25     5   137634.0000  1029     7079.0000   137634.0000    96383     --- 
     26    15   137634.0000  1157     7079.0000   137634.0000   201485     --- 
     29    17   137634.0000  1043     7079.0000   137634.0000   209743     --- 
     31    19   137634.0000   990     7079.0000   137634.0000   212178     --- 
     32    20   137634.0000  1171     7079.0000   137634.0000   221841     --- 
Elapsed time = 538.39 sec. (326770.70 ticks, tree = 1.35 MB, solutions = 3)
     34    22   137634.0000   965     7079.0000   137634.0000   224612     --- 
     35    23   137634.0000   980     7079.0000   137634.0000   234555     --- 
     38    25   137634.0000   912     7079.0000   137634.0000   235904     --- 
     39    13   137634.0000   935     7079.0000   137634.0000   176938     --- 
     43    18   137634.0000  1299     7079.0000   137634.0000   240025     --- 
     45    23   137634.0000   976     7079.0000   137634.0000   270158     --- 
     50    24   137634.0000  1101     7079.0000   137634.0000   273432     --- 
     52    25   137634.0000   926     7079.0000   137634.0000   274510     --- 
     56    40   137634.0000   936     7079.0000   137634.0000   315602     --- 
     58    26   137634.0000  1052     7079.0000   137634.0000   278255     --- 
Elapsed time = 572.03 sec. (342364.44 ticks, tree = 0.90 MB, solutions = 3)
     68    43   137634.0000   877     7079.0000   137634.0000   317758     --- 
     70    28   137634.0000   951     7079.0000   137634.0000   281002     --- 
     75    44   137634.0000   892     7079.0000   137634.0000   320658     --- 
     80    62   137634.0000   920     7079.0000   137634.0000   404225     --- 
     84    46   137634.0000   931     7079.0000   137634.0000   345797     --- 
     87    45   137634.0000   893     7079.0000   137634.0000   378899     --- 
     90    59   137634.0000   864     7079.0000   137634.0000   390230     --- 
     93    47   137634.0000   917     7079.0000   137634.0000   382655     --- 
     95    47   137634.0000   801     7079.0000   137634.0000   348478     --- 
    100    49   137634.0000   930     7079.0000   137634.0000   386027     --- 
Elapsed time = 596.01 sec. (355438.89 ticks, tree = 0.72 MB, solutions = 3)
    102    62   137634.0000   820     7079.0000   137634.0000   394237     --- 
    105    68   137634.0000   834     7079.0000   137634.0000   411112     --- 
    107    63   137634.0000   843     7079.0000   137634.0000   396271     --- 
    109    69   137634.0000   854     7079.0000   137634.0000   413000     --- 
    111    65   137634.0000   771     7079.0000   137634.0000   398258     --- 
    113    79   137634.0000  1045     7079.0000   137634.0000   435453     --- 
    119    91   137634.0000   860     7079.0000   137634.0000   448227     --- 
    121   101   137634.0000   907     7079.0000   137634.0000   470226     --- 
    128    95   137634.0000   810     7079.0000   137634.0000   450543     --- 
    130   104   137634.0000   930     7079.0000   137634.0000   476502     --- 
Elapsed time = 633.23 sec. (372014.50 ticks, tree = 2.81 MB, solutions = 3)
    131    96   137634.0000   854     7079.0000   137634.0000   452813     --- 
    133    80    infeasible           7079.0000   137634.0000   443551     --- 
    134   105   137634.0000  1003     7079.0000   137634.0000   487072     --- 
    136   101   137634.0000   901     7079.0000   137634.0000   484741     --- 
    137   116   137634.0000  1083     7079.0000   137634.0000   535008     --- 
    140   108   137634.0000  1168     7079.0000   137634.0000   520838     --- 
    143   109   137634.0000   958     7079.0000   137634.0000   523379     --- 
    144   117   137634.0000   828     7079.0000   137634.0000   536095     --- 
    151   117   137634.0000   733     7079.0000   137634.0000   554069     --- 
    152   120   137634.0000   741     7079.0000   137634.0000   584087     --- 
Elapsed time = 691.83 sec. (397435.39 ticks, tree = 5.17 MB, solutions = 3)
    154   118   137634.0000   870     7079.0000   137634.0000   576578     --- 
    156   120   137634.0000   711     7079.0000   137634.0000   592979     --- 
    159   121   137634.0000   931     7079.0000   137634.0000   584770     --- 
    163   117   137634.0000   707     7079.0000   137634.0000   568529     --- 
    165   120    infeasible           7079.0000   137634.0000   603299     --- 
    172   129   137634.0000  1038     7079.0000   137634.0000   645725     --- 
    174   122   137634.0000   701     7079.0000   137634.0000   623154     --- 
    178   130   137634.0000  1023     7079.0000   137634.0000   648111     --- 
    180   120    infeasible           7079.0000   137634.0000   608975     --- 
    182   123    infeasible           7079.0000   137634.0000   626124     --- 
Elapsed time = 734.23 sec. (417713.11 ticks, tree = 5.25 MB, solutions = 3)
    186   121    infeasible           7079.0000   137634.0000   627662     --- 
    187   132   137634.0000   992     7079.0000   137634.0000   652355     --- 
    193   134   137634.0000   902     7079.0000   137634.0000   654522     --- 
    196   119    infeasible           7079.0000   137634.0000   617216     --- 
    198   120    infeasible           7079.0000   137634.0000   633125     --- 
    200   135   137634.0000   773     7079.0000   137634.0000   659285     --- 
    201   120   137634.0000   830     7079.0000   137634.0000   617435     --- 
    205   137   137634.0000   782     7079.0000   137634.0000   658299     --- 
    208   139   137634.0000   780     7079.0000   137634.0000   660205     --- 
    209   140   137634.0000  1010     7079.0000   137634.0000   663950     --- 
Elapsed time = 784.67 sec. (434603.96 ticks, tree = 5.49 MB, solutions = 3)
    211   135    infeasible           7079.0000   137634.0000   694430     --- 
    213   142   137634.0000  1032     7079.0000   137634.0000   668371     --- 
    214   131   137634.0000   900     7079.0000   137634.0000   667489     --- 
    216   134    infeasible           7079.0000   137634.0000   696883     --- 
    218   133   137634.0000   900     7079.0000   137634.0000   672474     --- 
    219   148   137634.0000   736     7079.0000   137634.0000   726493     --- 
    221   128   137634.0000   949     7079.0000   137634.0000   691528     --- 
    222   147    infeasible           7079.0000   137634.0000   749116     --- 
    223   149   137634.0000   795     7079.0000   137634.0000   751066     --- 
    224   152   137634.0000   793     7079.0000   137634.0000   751977     --- 
Elapsed time = 916.25 sec. (464354.07 ticks, tree = 5.77 MB, solutions = 3)
    226   146    infeasible           7079.0000   137634.0000   750183     --- 
    228   149   137634.0000   778     7079.0000   137634.0000   744221     --- 
    229   150    infeasible           7079.0000   137634.0000   758181     --- 
    231   152   137634.0000   721     7079.0000   137634.0000   809997     --- 
    233   153   137634.0000  1036     7079.0000   137634.0000   874775     --- 
    235   152   137634.0000  1001     7079.0000   137634.0000   826448     --- 
    236   155   137634.0000   840     7079.0000   137634.0000   890886     --- 
    238   157   137634.0000   812     7079.0000   137634.0000   896643     --- 
    239   151   137634.0000   785     7079.0000   137634.0000   847157     --- 
    242   153   137634.0000   918     7079.0000   137634.0000   912274     --- 
Elapsed time = 1036.33 sec. (501085.21 ticks, tree = 5.81 MB, solutions = 3)
    249   152   137634.0000   839     7079.0000   137634.0000   911530     --- 
    251   153   137634.0000   789     7079.0000   137634.0000   916891     --- 
    258   157    infeasible           7079.0000   137634.0000   994527     --- 
    264   170   137634.0000   756     7079.0000   137634.0000  1071261     --- 
    282   172   137634.0000   739     7079.0000   137634.0000  1076982     --- 
    300   160   137634.0000   670     7079.0000   137634.0000  1005376     --- 
    315   159    infeasible           7079.0000   137634.0000  1010618     --- 
Starting limited solution polishing.
    322   186   137634.0000   975     7079.0000   137634.0000  1139631     --- 
    330   183   137634.0000   681     7079.0000   137634.0000  1091325     --- 
    341   160   137634.0000   774     7079.0000   137634.0000  1017143     --- 
Elapsed time = 1130.63 sec. (546204.28 ticks, tree = 6.00 MB, solutions = 3)
    352   203   137634.0000   772     7079.0000   137634.0000  1186852     --- 
    358   197   137634.0000   710     7079.0000   137634.0000  1160416     --- 
    368   188   137634.0000  1121     7079.0000   137634.0000  1131604     --- 
    375   216   137634.0000   877     7079.0000   137634.0000  1216661     --- 
    382   207   137634.0000   752     7079.0000   137634.0000  1174647     --- 
    392   209   137634.0000   687     7079.0000   137634.0000  1174972     --- 
    402   217    infeasible           7079.0000   137634.0000  1227304     --- 

Implied bound cuts applied:  727
Flow cuts applied:  14
Mixed integer rounding cuts applied:  3

Root node processing (before b&c):
  Real time             =  342.61 sec. (225561.42 ticks)
Parallel b&c, 4 threads:
  Real time             =  857.97 sec. (355775.50 ticks)
  Sync time (average)   =  148.59 sec.
  Wait time (average)   =    0.00 sec.
                          ------------
Total (root+branch&cut) = 1200.58 sec. (581336.92 ticks)

<<< solve


OBJECTIVE: 7079

<<< post process


<<< done

